[2026-03-23T13:54:50.791Z] Pipeline "set_exp_2_exp_2_n032_c008_g004" → 2026_03_23_13_54_50_set_exp_2_exp_2_n032_c008_g004_max.sol
Set parameter WLSAccessID
Set parameter WLSSecret
Set parameter LicenseID to value 2792458
Set parameter LogFile to value "gurobi.log"
Using license file /root/gurobi.lic
Academic license 2792458 - for non-commercial use only - registered to an___@studenti.unipg.it

Gurobi Optimizer version 13.0.1 build v13.0.1rc0 (linux64 - "Ubuntu 24.04.4 LTS")
Copyright (c) 2026, Gurobi Optimization, LLC

Warning: Duplicate section found (read 'binary') - Is a variable name equal to an LP file format keyword?
Warning: Duplicate section found (read 'binary') - Is a variable name equal to an LP file format keyword?
Warning: Duplicate section found (read 'binary') - Is a variable name equal to an LP file format keyword?
Warning: Duplicate section found (read 'binary') - Is a variable name equal to an LP file format keyword?
Warning: Duplicate section found (read 'binary') - Is a variable name equal to an LP file format keyword?
Warning: Duplicate section found (read 'binary') - Is a variable name equal to an LP file format keyword?
Warning: Duplicate section found (read 'binary') - Is a variable name equal to an LP file format keyword?
Warning: Duplicate section found (read 'binary') - Is a variable name equal to an LP file format keyword?
Warning: Duplicate section found (read 'binary') - Is a variable name equal to an LP file format keyword?
Warning: Duplicate section found (read 'binary') - Is a variable name equal to an LP file format keyword?
Warning: Further warnings of this type will be omitted.
Read LP format model from file /root/bgw/data/uploads/2026_03_23_13_54_50_set_exp_2_exp_2_n032_c008_g004_max.lp
Reading time = 0.01 seconds
: 11088 rows, 764 columns, 33072 nonzeros

Using Gurobi shared library /opt/gurobi1301/linux64/lib/libgurobi.so.13.0.1

CPU model: AMD EPYC-Genoa Processor, instruction set [SSE2|AVX|AVX2|AVX512]
Thread count: 16 physical cores, 16 logical processors, using up to 16 threads

Academic license 2792458 - for non-commercial use only - registered to an___@studenti.unipg.it
Optimize a model with 11088 rows, 764 columns and 33072 nonzeros (Max)
Model fingerprint: 0x8cdadd46
Model has 8 linear objective coefficients
Variable types: 40 continuous, 724 integer (724 binary)
Coefficient statistics:
  Matrix range     [1e+00, 3e+01]
  Objective range  [1e+00, 1e+00]
  Bounds range     [1e+00, 1e+00]
  RHS range        [1e+00, 3e+01]

Found heuristic solution: objective 8.0000000
Presolve removed 1100 rows and 224 columns
Presolve time: 0.04s
Presolved: 9988 rows, 540 columns, 30544 nonzeros
Variable types: 0 continuous, 540 integer (520 binary)
Found heuristic solution: objective 13.0000000

Root relaxation: objective 3.200000e+01, 1008 iterations, 0.09 seconds (0.12 work units)

    Nodes    |    Current Node    |     Objective Bounds      |     Work
 Expl Unexpl |  Obj  Depth IntInf | Incumbent    BestBd   Gap | It/Node Time

     0     0   32.00000    0   85   13.00000   32.00000   146%     -    0s
H    0     0                      20.0000000   32.00000  60.0%     -    0s
H    0     0                      21.0000000   32.00000  52.4%     -    0s
H    0     0                      22.0000000   32.00000  45.5%     -    0s
     0     0   32.00000    0   87   22.00000   32.00000  45.5%     -    0s
H    0     0                      23.0000000   32.00000  39.1%     -    0s
     0     0   32.00000    0   65   23.00000   32.00000  39.1%     -    0s
     0     0   32.00000    0   60   23.00000   32.00000  39.1%     -    0s
     0     0   32.00000    0   60   23.00000   32.00000  39.1%     -    0s
     0     0   32.00000    0   58   23.00000   32.00000  39.1%     -    0s
     0     0   32.00000    0   58   23.00000   32.00000  39.1%     -    0s
     0     0   32.00000    0   58   23.00000   32.00000  39.1%     -    0s
     0     0   32.00000    0   61   23.00000   32.00000  39.1%     -    0s
     0     0   32.00000    0   61   23.00000   32.00000  39.1%     -    0s
     0     0   32.00000    0   58   23.00000   32.00000  39.1%     -    0s
     0     0   32.00000    0   58   23.00000   32.00000  39.1%     -    0s
     0     0   32.00000    0   58   23.00000   32.00000  39.1%     -    0s
     0     0   32.00000    0   61   23.00000   32.00000  39.1%     -    0s
     0     0   32.00000    0   61   23.00000   32.00000  39.1%     -    0s
     0     0   32.00000    0   61   23.00000   32.00000  39.1%     -    0s
     0     0   32.00000    0   60   23.00000   32.00000  39.1%     -    1s
     0     0   32.00000    0   60   23.00000   32.00000  39.1%     -    1s
     0     0   32.00000    0   60   23.00000   32.00000  39.1%     -    1s
     0     0   32.00000    0   58   23.00000   32.00000  39.1%     -    1s
     0     2   32.00000    0   58   23.00000   32.00000  39.1%     -    1s
  1192   719   24.93333   16   25   23.00000   31.00000  34.8%   245    5s
  4059  1578   25.96667   12   49   23.00000   29.00000  26.1%   231   10s
  5426  1912 infeasible   37        23.00000   29.00000  26.1%   227   15s
  8038  1837     cutoff   31        23.00000   27.73333  20.6%   226   20s
 11246  1847   25.92319   30   98   23.00000   26.96667  17.2%   232   25s
 13545  1852 infeasible   35        23.00000   26.73333  16.2%   235   30s
 17490  1726   24.83333   35   28   23.00000   26.00000  13.0%   244   35s
 21257  1222   25.00000   31  173   23.00000   25.96667  12.9%   246   40s

Cutting planes:
  Cover: 1
  Inf proof: 18

Explored 25451 nodes (6214440 simplex iterations) in 43.92 seconds (100.17 work units)
Thread count was 16 (of 16 available processors)

Solution count 9: 23 23 22 ... 8

Optimal solution found (tolerance 1.00e-04)
Best objective 2.300000000000e+01, best bound 2.300000000000e+01, gap 0.0000%

Wrote result file '/root/bgw/data/results/2026_03_23_13_54_50_set_exp_2_exp_2_n032_c008_g004_max.sol'

